(set-logic ALL)
(declare-const BAV1 Bool)
(declare-const BAV2 Bool)
(declare-const BAV3 Bool)
(declare-const BAV4 Bool)
(declare-const BAV5 Bool)
(declare-const BAV6 Bool)
(declare-const BAV7 Bool)
(declare-const BAV8 Bool)
(declare-const BAV9 Bool)
(declare-const BAV10 Bool)
(declare-const BAV11 Bool)
(declare-const BAV12 Bool)
(declare-const BAV13 Bool)
(declare-const BAV14 Bool)
(declare-const BAV15 Bool)
(declare-const BAV16 Bool)
(declare-const BAV17 Bool)
(declare-const BAV18 Bool)
(declare-const BAV19 Bool)
(declare-const BAV20 Bool)
(declare-const BAV21 Bool)
(declare-const BAV22 Bool)
(declare-const BAV23 Bool)
(declare-const GEN9 Int)
(declare-const GEN8 Int)
(declare-const GEN7 Int)
(declare-const GEN6 Int)
(declare-const GEN5 Int)
(declare-const GEN4 Int)
(declare-const GEN3 Int)
(declare-const GEN2 Int)
(declare-const GEN1 Int)
(declare-fun i1 () Real)
(declare-fun i2 () Real)
(declare-fun n () Int)
(declare-fun x () Int)
(declare-fun y () Int)
(declare-fun i11 () Real)
(declare-fun i21 () Real)
(assert (>= n GEN1))
(assert (and (<= GEN2 x) (<= x n)))
(assert (and (<= GEN3 y) (<= y n)))
(assert (or (= (/ (* (- GEN4) x) n) i1) (= i1 (/ x n))))
(assert (or (= (/ (* (- GEN5) y) n) i2) (= i2 (/ y n))))
(assert (and (= i1 i11) (= i2 i21)))
(assert (not (and (or (= (- GEN6) i11) (= i11 GEN7)) (or (= (- GEN8) i21) (= i21 GEN9)))))
(assert (= BAV1 (>= n GEN1)))
(assert (= BAV2 (and (<= GEN2 x) (<= x n))))
(assert (= BAV3 (<= GEN2 x)))
(assert (= BAV4 (<= x n)))
(assert (= BAV5 (and (<= GEN3 y) (<= y n))))
(assert (= BAV6 (<= GEN3 y)))
(assert (= BAV7 (<= y n)))
(assert (= BAV8 (or (= (/ (* (- GEN4) x) n) i1) (= i1 (/ x n)))))
(assert (= BAV9 (= (/ (* (- GEN4) x) n) i1)))
(assert (= BAV10 (= i1 (/ x n))))
(assert (= BAV11 (or (= (/ (* (- GEN5) y) n) i2) (= i2 (/ y n)))))
(assert (= BAV12 (= (/ (* (- GEN5) y) n) i2)))
(assert (= BAV13 (= i2 (/ y n))))
(assert (= BAV14 (and (= i1 i11) (= i2 i21))))
(assert (= BAV15 (= i1 i11)))
(assert (= BAV16 (= i2 i21)))
(assert (= BAV17 (and (or (= (- GEN6) i11) (= i11 GEN7)) (or (= (- GEN8) i21) (= i21 GEN9)))))
(assert (= BAV18 (or (= (- GEN6) i11) (= i11 GEN7))))
(assert (= BAV19 (= (- GEN6) i11)))
(assert (= BAV20 (= i11 GEN7)))
(assert (= BAV21 (or (= (- GEN8) i21) (= i21 GEN9))))
(assert (= BAV22 (= (- GEN8) i21)))
(assert (= BAV23 (= i21 GEN9)))
(check-sat)
(get-model)